2fesztival_generic/fesztival.dat
set Bands:=
Hatijenincs ...
;

set Fests:=
SEN ...
;

